Minimize
 obj: 0 X_0_1
Subject To
 out_0:
  + 1 X_0_1 + 1 X_0_2 + 1 X_0_3 + 1 X_0_4 + 1 X_0_5 + 1 X_0_6 + 1 X_0_7 + 1 X_0_8
  + 1 X_0_9
  = 1
 in_0:
  + 1 X_1_0 + 1 X_2_0 + 1 X_3_0 + 1 X_4_0 + 1 X_5_0 + 1 X_6_0 + 1 X_7_0 + 1 X_8_0
  + 1 X_9_0
  = 1
 out_1:
  + 1 X_1_0 + 1 X_1_2 + 1 X_1_3 + 1 X_1_4 + 1 X_1_5 + 1 X_1_6 + 1 X_1_7 + 1 X_1_8
  + 1 X_1_9
  = 1
 in_1:
  + 1 X_0_1 + 1 X_2_1 + 1 X_3_1 + 1 X_4_1 + 1 X_5_1 + 1 X_6_1 + 1 X_7_1 + 1 X_8_1
  + 1 X_9_1
  = 1
 out_2:
  + 1 X_2_0 + 1 X_2_1 + 1 X_2_3 + 1 X_2_4 + 1 X_2_5 + 1 X_2_6 + 1 X_2_7 + 1 X_2_8
  + 1 X_2_9
  = 1
 in_2:
  + 1 X_0_2 + 1 X_1_2 + 1 X_3_2 + 1 X_4_2 + 1 X_5_2 + 1 X_6_2 + 1 X_7_2 + 1 X_8_2
  + 1 X_9_2
  = 1
 out_3:
  + 1 X_3_0 + 1 X_3_1 + 1 X_3_2 + 1 X_3_4 + 1 X_3_5 + 1 X_3_6 + 1 X_3_7 + 1 X_3_8
  + 1 X_3_9
  = 1
 in_3:
  + 1 X_0_3 + 1 X_1_3 + 1 X_2_3 + 1 X_4_3 + 1 X_5_3 + 1 X_6_3 + 1 X_7_3 + 1 X_8_3
  + 1 X_9_3
  = 1
 out_4:
  + 1 X_4_0 + 1 X_4_1 + 1 X_4_2 + 1 X_4_3 + 1 X_4_5 + 1 X_4_6 + 1 X_4_7 + 1 X_4_8
  + 1 X_4_9
  = 1
 in_4:
  + 1 X_0_4 + 1 X_1_4 + 1 X_2_4 + 1 X_3_4 + 1 X_5_4 + 1 X_6_4 + 1 X_7_4 + 1 X_8_4
  + 1 X_9_4
  = 1
 out_5:
  + 1 X_5_0 + 1 X_5_1 + 1 X_5_2 + 1 X_5_3 + 1 X_5_4 + 1 X_5_6 + 1 X_5_7 + 1 X_5_8
  + 1 X_5_9
  = 1
 in_5:
  + 1 X_0_5 + 1 X_1_5 + 1 X_2_5 + 1 X_3_5 + 1 X_4_5 + 1 X_6_5 + 1 X_7_5 + 1 X_8_5
  + 1 X_9_5
  = 1
 out_6:
  + 1 X_6_0 + 1 X_6_1 + 1 X_6_2 + 1 X_6_3 + 1 X_6_4 + 1 X_6_5 + 1 X_6_7 + 1 X_6_8
  + 1 X_6_9
  = 1
 in_6:
  + 1 X_0_6 + 1 X_1_6 + 1 X_2_6 + 1 X_3_6 + 1 X_4_6 + 1 X_5_6 + 1 X_7_6 + 1 X_8_6
  + 1 X_9_6
  = 1
 out_7:
  + 1 X_7_0 + 1 X_7_1 + 1 X_7_2 + 1 X_7_3 + 1 X_7_4 + 1 X_7_5 + 1 X_7_6 + 1 X_7_8
  + 1 X_7_9
  = 1
 in_7:
  + 1 X_0_7 + 1 X_1_7 + 1 X_2_7 + 1 X_3_7 + 1 X_4_7 + 1 X_5_7 + 1 X_6_7 + 1 X_8_7
  + 1 X_9_7
  = 1
 out_8:
  + 1 X_8_0 + 1 X_8_1 + 1 X_8_2 + 1 X_8_3 + 1 X_8_4 + 1 X_8_5 + 1 X_8_6 + 1 X_8_7
  + 1 X_8_9
  = 1
 in_8:
  + 1 X_0_8 + 1 X_1_8 + 1 X_2_8 + 1 X_3_8 + 1 X_4_8 + 1 X_5_8 + 1 X_6_8 + 1 X_7_8
  + 1 X_9_8
  = 1
 out_9:
  + 1 X_9_0 + 1 X_9_1 + 1 X_9_2 + 1 X_9_3 + 1 X_9_4 + 1 X_9_5 + 1 X_9_6 + 1 X_9_7
  + 1 X_9_8
  = 1
 in_9:
  + 1 X_0_9 + 1 X_1_9 + 1 X_2_9 + 1 X_3_9 + 1 X_4_9 + 1 X_5_9 + 1 X_6_9 + 1 X_7_9
  + 1 X_8_9
  = 1
 mtz_1_2:
  + 1 U1 - 1 U2 + 9 X_1_2
  <= 8
 mtz_1_3:
  + 1 U1 - 1 U3 + 9 X_1_3
  <= 8
 mtz_1_4:
  + 1 U1 - 1 U4 + 9 X_1_4
  <= 8
 mtz_1_5:
  + 1 U1 - 1 U5 + 9 X_1_5
  <= 8
 mtz_1_6:
  + 1 U1 - 1 U6 + 9 X_1_6
  <= 8
 mtz_1_7:
  + 1 U1 - 1 U7 + 9 X_1_7
  <= 8
 mtz_1_8:
  + 1 U1 - 1 U8 + 9 X_1_8
  <= 8
 mtz_1_9:
  + 1 U1 - 1 U9 + 9 X_1_9
  <= 8
 mtz_2_1:
  + 1 U2 - 1 U1 + 9 X_2_1
  <= 8
 mtz_2_3:
  + 1 U2 - 1 U3 + 9 X_2_3
  <= 8
 mtz_2_4:
  + 1 U2 - 1 U4 + 9 X_2_4
  <= 8
 mtz_2_5:
  + 1 U2 - 1 U5 + 9 X_2_5
  <= 8
 mtz_2_6:
  + 1 U2 - 1 U6 + 9 X_2_6
  <= 8
 mtz_2_7:
  + 1 U2 - 1 U7 + 9 X_2_7
  <= 8
 mtz_2_8:
  + 1 U2 - 1 U8 + 9 X_2_8
  <= 8
 mtz_2_9:
  + 1 U2 - 1 U9 + 9 X_2_9
  <= 8
 mtz_3_1:
  + 1 U3 - 1 U1 + 9 X_3_1
  <= 8
 mtz_3_2:
  + 1 U3 - 1 U2 + 9 X_3_2
  <= 8
 mtz_3_4:
  + 1 U3 - 1 U4 + 9 X_3_4
  <= 8
 mtz_3_5:
  + 1 U3 - 1 U5 + 9 X_3_5
  <= 8
 mtz_3_6:
  + 1 U3 - 1 U6 + 9 X_3_6
  <= 8
 mtz_3_7:
  + 1 U3 - 1 U7 + 9 X_3_7
  <= 8
 mtz_3_8:
  + 1 U3 - 1 U8 + 9 X_3_8
  <= 8
 mtz_3_9:
  + 1 U3 - 1 U9 + 9 X_3_9
  <= 8
 mtz_4_1:
  + 1 U4 - 1 U1 + 9 X_4_1
  <= 8
 mtz_4_2:
  + 1 U4 - 1 U2 + 9 X_4_2
  <= 8
 mtz_4_3:
  + 1 U4 - 1 U3 + 9 X_4_3
  <= 8
 mtz_4_5:
  + 1 U4 - 1 U5 + 9 X_4_5
  <= 8
 mtz_4_6:
  + 1 U4 - 1 U6 + 9 X_4_6
  <= 8
 mtz_4_7:
  + 1 U4 - 1 U7 + 9 X_4_7
  <= 8
 mtz_4_8:
  + 1 U4 - 1 U8 + 9 X_4_8
  <= 8
 mtz_4_9:
  + 1 U4 - 1 U9 + 9 X_4_9
  <= 8
 mtz_5_1:
  + 1 U5 - 1 U1 + 9 X_5_1
  <= 8
 mtz_5_2:
  + 1 U5 - 1 U2 + 9 X_5_2
  <= 8
 mtz_5_3:
  + 1 U5 - 1 U3 + 9 X_5_3
  <= 8
 mtz_5_4:
  + 1 U5 - 1 U4 + 9 X_5_4
  <= 8
 mtz_5_6:
  + 1 U5 - 1 U6 + 9 X_5_6
  <= 8
 mtz_5_7:
  + 1 U5 - 1 U7 + 9 X_5_7
  <= 8
 mtz_5_8:
  + 1 U5 - 1 U8 + 9 X_5_8
  <= 8
 mtz_5_9:
  + 1 U5 - 1 U9 + 9 X_5_9
  <= 8
 mtz_6_1:
  + 1 U6 - 1 U1 + 9 X_6_1
  <= 8
 mtz_6_2:
  + 1 U6 - 1 U2 + 9 X_6_2
  <= 8
 mtz_6_3:
  + 1 U6 - 1 U3 + 9 X_6_3
  <= 8
 mtz_6_4:
  + 1 U6 - 1 U4 + 9 X_6_4
  <= 8
 mtz_6_5:
  + 1 U6 - 1 U5 + 9 X_6_5
  <= 8
 mtz_6_7:
  + 1 U6 - 1 U7 + 9 X_6_7
  <= 8
 mtz_6_8:
  + 1 U6 - 1 U8 + 9 X_6_8
  <= 8
 mtz_6_9:
  + 1 U6 - 1 U9 + 9 X_6_9
  <= 8
 mtz_7_1:
  + 1 U7 - 1 U1 + 9 X_7_1
  <= 8
 mtz_7_2:
  + 1 U7 - 1 U2 + 9 X_7_2
  <= 8
 mtz_7_3:
  + 1 U7 - 1 U3 + 9 X_7_3
  <= 8
 mtz_7_4:
  + 1 U7 - 1 U4 + 9 X_7_4
  <= 8
 mtz_7_5:
  + 1 U7 - 1 U5 + 9 X_7_5
  <= 8
 mtz_7_6:
  + 1 U7 - 1 U6 + 9 X_7_6
  <= 8
 mtz_7_8:
  + 1 U7 - 1 U8 + 9 X_7_8
  <= 8
 mtz_7_9:
  + 1 U7 - 1 U9 + 9 X_7_9
  <= 8
 mtz_8_1:
  + 1 U8 - 1 U1 + 9 X_8_1
  <= 8
 mtz_8_2:
  + 1 U8 - 1 U2 + 9 X_8_2
  <= 8
 mtz_8_3:
  + 1 U8 - 1 U3 + 9 X_8_3
  <= 8
 mtz_8_4:
  + 1 U8 - 1 U4 + 9 X_8_4
  <= 8
 mtz_8_5:
  + 1 U8 - 1 U5 + 9 X_8_5
  <= 8
 mtz_8_6:
  + 1 U8 - 1 U6 + 9 X_8_6
  <= 8
 mtz_8_7:
  + 1 U8 - 1 U7 + 9 X_8_7
  <= 8
 mtz_8_9:
  + 1 U8 - 1 U9 + 9 X_8_9
  <= 8
 mtz_9_1:
  + 1 U9 - 1 U1 + 9 X_9_1
  <= 8
 mtz_9_2:
  + 1 U9 - 1 U2 + 9 X_9_2
  <= 8
 mtz_9_3:
  + 1 U9 - 1 U3 + 9 X_9_3
  <= 8
 mtz_9_4:
  + 1 U9 - 1 U4 + 9 X_9_4
  <= 8
 mtz_9_5:
  + 1 U9 - 1 U5 + 9 X_9_5
  <= 8
 mtz_9_6:
  + 1 U9 - 1 U6 + 9 X_9_6
  <= 8
 mtz_9_7:
  + 1 U9 - 1 U7 + 9 X_9_7
  <= 8
 mtz_9_8:
  + 1 U9 - 1 U8 + 9 X_9_8
  <= 8
 obj1:
  + 896 X_0_1 + 452 X_0_2 + 542 X_0_3 + 151 X_0_4 + 786 X_0_5 + 594 X_0_6 + 367 X_0_7 + 671 X_0_8
  + 451 X_0_9 + 896 X_1_0 + 588 X_1_2 + 412 X_1_3 + 839 X_1_4 + 142 X_1_5 + 835 X_1_6 + 575 X_1_7
  + 266 X_1_8 + 462 X_1_9 + 452 X_2_0 + 588 X_2_1 + 449 X_2_3 + 327 X_2_4 + 538 X_2_5 + 297 X_2_6
  + 121 X_2_7 + 482 X_2_8 + 358 X_2_9 + 542 X_3_0 + 412 X_3_1 + 449 X_3_2 + 539 X_3_4 + 276 X_3_5
  + 746 X_3_6 + 354 X_3_7 + 148 X_3_8 + 104 X_3_9 + 151 X_4_0 + 839 X_4_1 + 327 X_4_2 + 539 X_4_3
  + 748 X_4_5 + 443 X_4_6 + 271 X_4_7 + 646 X_4_8 + 437 X_4_9 + 786 X_5_0 + 142 X_5_1 + 538 X_5_2
  + 276 X_5_3 + 748 X_5_4 + 814 X_5_6 + 499 X_5_7 + 128 X_5_8 + 339 X_5_9 + 594 X_6_0 + 835 X_6_1
  + 297 X_6_2 + 746 X_6_3 + 443 X_6_4 + 814 X_6_5 + 401 X_6_7 + 773 X_6_8 + 653 X_6_9 + 367 X_7_0
  + 575 X_7_1 + 121 X_7_2 + 354 X_7_3 + 271 X_7_4 + 499 X_7_5 + 401 X_7_6 + 417 X_7_8 + 255 X_7_9
  + 671 X_8_0 + 266 X_8_1 + 482 X_8_2 + 148 X_8_3 + 646 X_8_4 + 128 X_8_5 + 773 X_8_6 + 417 X_8_7
  + 219 X_8_9 + 451 X_9_0 + 462 X_9_1 + 358 X_9_2 + 104 X_9_3 + 437 X_9_4 + 339 X_9_5 + 653 X_9_6
  + 255 X_9_7 + 219 X_9_8
  <= 1
 obj2:
  + 779 X_0_1 + 742 X_0_2 + 641 X_0_3 + 330 X_0_4 + 897 X_0_5 + 150 X_0_6 + 140 X_0_7 + 757 X_0_8
  + 851 X_0_9 + 779 X_1_0 + 96 X_1_2 + 439 X_1_3 + 860 X_1_4 + 933 X_1_5 + 918 X_1_6 + 745 X_1_7
  + 1255 X_1_8 + 1206 X_1_9 + 742 X_2_0 + 96 X_2_1 + 343 X_2_3 + 791 X_2_4 + 836 X_2_5 + 887 X_2_6
  + 692 X_2_7 + 1171 X_2_8 + 1115 X_2_9 + 641 X_3_0 + 439 X_3_1 + 343 X_3_2 + 546 X_3_4 + 500 X_3_5
  + 791 X_3_6 + 535 X_3_7 + 858 X_3_8 + 779 X_3_9 + 330 X_4_0 + 860 X_4_1 + 791 X_4_2 + 546 X_4_3
  + 615 X_4_5 + 413 X_4_6 + 206 X_4_7 + 451 X_4_8 + 521 X_4_9 + 897 X_5_0 + 933 X_5_1 + 836 X_5_2
  + 500 X_5_3 + 615 X_5_4 + 1015 X_5_6 + 757 X_5_7 + 611 X_5_8 + 426 X_5_9 + 150 X_6_0 + 918 X_6_1
  + 887 X_6_2 + 791 X_6_3 + 413 X_6_4 + 1015 X_6_5 + 269 X_6_7 + 788 X_6_8 + 915 X_6_9 + 140 X_7_0
  + 745 X_7_1 + 692 X_7_2 + 535 X_7_3 + 206 X_7_4 + 757 X_7_5 + 269 X_7_6 + 653 X_7_8 + 726 X_7_9
  + 757 X_8_0 + 1255 X_8_1 + 1171 X_8_2 + 858 X_8_3 + 451 X_8_4 + 611 X_8_5 + 788 X_8_6 + 653 X_8_7
  + 219 X_8_9 + 851 X_9_0 + 1206 X_9_1 + 1115 X_9_2 + 779 X_9_3 + 521 X_9_4 + 426 X_9_5 + 915 X_9_6
  + 726 X_9_7 + 219 X_9_8
  <= 2
 obj3:
  + 874 X_0_1 + 326 X_0_2 + 311 X_0_3 + 642 X_0_4 + 793 X_0_5 + 238 X_0_6 + 626 X_0_7 + 96 X_0_8
  + 460 X_0_9 + 874 X_1_0 + 557 X_1_2 + 586 X_1_3 + 784 X_1_4 + 590 X_1_5 + 710 X_1_6 + 249 X_1_7
  + 795 X_1_8 + 928 X_1_9 + 326 X_2_0 + 557 X_2_1 + 162 X_2_3 + 620 X_2_4 + 648 X_2_5 + 261 X_2_6
  + 317 X_2_7 + 267 X_2_8 + 579 X_2_9 + 311 X_3_0 + 586 X_3_1 + 162 X_3_2 + 460 X_3_4 + 521 X_3_5
  + 129 X_3_6 + 337 X_3_7 + 219 X_3_8 + 426 X_3_9 + 642 X_4_0 + 784 X_4_1 + 620 X_4_2 + 460 X_4_3
  + 278 X_4_5 + 424 X_4_6 + 612 X_4_7 + 557 X_4_8 + 274 X_4_9 + 793 X_5_0 + 590 X_5_1 + 648 X_5_2
  + 521 X_5_3 + 278 X_5_4 + 554 X_5_6 + 498 X_5_7 + 697 X_5_8 + 535 X_5_9 + 238 X_6_0 + 710 X_6_1
  + 261 X_6_2 + 129 X_6_3 + 424 X_6_4 + 554 X_6_5 + 463 X_6_7 + 143 X_6_8 + 320 X_6_9 + 626 X_7_0
  + 249 X_7_1 + 317 X_7_2 + 337 X_7_3 + 612 X_7_4 + 498 X_7_5 + 463 X_7_6 + 545 X_7_8 + 706 X_7_9
  + 96 X_8_0 + 795 X_8_1 + 267 X_8_2 + 219 X_8_3 + 557 X_8_4 + 697 X_8_5 + 143 X_8_6 + 545 X_8_7
  + 403 X_8_9 + 460 X_9_0 + 928 X_9_1 + 579 X_9_2 + 426 X_9_3 + 274 X_9_4 + 535 X_9_5 + 320 X_9_6
  + 706 X_9_7 + 403 X_9_8
  <= 3
 obj4:
  + 789 X_0_1 + 354 X_0_2 + 289 X_0_3 + 661 X_0_4 + 376 X_0_5 + 228 X_0_6 + 245 X_0_7 + 598 X_0_8
  + 358 X_0_9 + 789 X_1_0 + 440 X_1_2 + 499 X_1_3 + 443 X_1_4 + 730 X_1_5 + 950 X_1_6 + 664 X_1_7
  + 199 X_1_8 + 811 X_1_9 + 354 X_2_0 + 440 X_2_1 + 76 X_2_3 + 377 X_2_4 + 361 X_2_5 + 545 X_2_6
  + 312 X_2_7 + 265 X_2_8 + 497 X_2_9 + 289 X_3_0 + 499 X_3_1 + 76 X_3_2 + 450 X_3_4 + 373 X_3_5
  + 470 X_3_6 + 238 X_3_7 + 311 X_3_8 + 424 X_3_9 + 661 X_4_0 + 443 X_4_1 + 377 X_4_2 + 450 X_4_3
  + 402 X_4_5 + 883 X_4_6 + 688 X_4_7 + 425 X_4_8 + 874 X_4_9 + 376 X_5_0 + 730 X_5_1 + 361 X_5_2
  + 373 X_5_3 + 402 X_5_4 + 599 X_5_6 + 539 X_5_7 + 600 X_5_8 + 706 X_5_9 + 228 X_6_0 + 950 X_6_1
  + 545 X_6_2 + 470 X_6_3 + 883 X_6_4 + 599 X_6_5 + 298 X_6_7 + 752 X_6_8 + 269 X_6_9 + 245 X_7_0
  + 664 X_7_1 + 312 X_7_2 + 238 X_7_3 + 688 X_7_4 + 539 X_7_5 + 298 X_7_6 + 465 X_7_8 + 186 X_7_9
  + 598 X_8_0 + 199 X_8_1 + 265 X_8_2 + 311 X_8_3 + 425 X_8_4 + 600 X_8_5 + 752 X_8_6 + 465 X_8_7
  + 617 X_8_9 + 358 X_9_0 + 811 X_9_1 + 497 X_9_2 + 424 X_9_3 + 874 X_9_4 + 706 X_9_5 + 269 X_9_6
  + 186 X_9_7 + 617 X_9_8
  <= 4
 obj5:
  + 844 X_0_1 + 811 X_0_2 + 767 X_0_3 + 834 X_0_4 + 792 X_0_5 + 784 X_0_6 + 683 X_0_7 + 798 X_0_8
  + 809 X_0_9 + 844 X_1_0 + 481 X_1_2 + 895 X_1_3 + 797 X_1_4 + 96 X_1_5 + 695 X_1_6 + 230 X_1_7
  + 191 X_1_8 + 91 X_1_9 + 811 X_2_0 + 481 X_2_1 + 457 X_2_3 + 328 X_2_4 + 389 X_2_5 + 232 X_2_6
  + 304 X_2_7 + 289 X_2_8 + 549 X_2_9 + 767 X_3_0 + 895 X_3_1 + 457 X_3_2 + 161 X_3_4 + 798 X_3_5
  + 228 X_3_6 + 672 X_3_7 + 714 X_3_8 + 939 X_3_9 + 834 X_4_0 + 797 X_4_1 + 328 X_4_2 + 161 X_4_3
  + 702 X_4_5 + 102 X_4_6 + 589 X_4_7 + 608 X_4_8 + 854 X_4_9 + 792 X_5_0 + 96 X_5_1 + 389 X_5_2
  + 798 X_5_3 + 702 X_5_4 + 599 X_5_6 + 139 X_5_7 + 102 X_5_8 + 161 X_5_9 + 784 X_6_0 + 695 X_6_1
  + 232 X_6_2 + 228 X_6_3 + 102 X_6_4 + 599 X_6_5 + 486 X_6_7 + 506 X_6_8 + 751 X_6_9 + 683 X_7_0
  + 230 X_7_1 + 304 X_7_2 + 672 X_7_3 + 589 X_7_4 + 139 X_7_5 + 486 X_7_6 + 115 X_7_8 + 267 X_7_9
  + 798 X_8_0 + 191 X_8_1 + 289 X_8_2 + 714 X_8_3 + 608 X_8_4 + 102 X_8_5 + 506 X_8_6 + 115 X_8_7
  + 263 X_8_9 + 809 X_9_0 + 91 X_9_1 + 549 X_9_2 + 939 X_9_3 + 854 X_9_4 + 161 X_9_5 + 751 X_9_6
  + 267 X_9_7 + 263 X_9_8
  <= 5
 obj6:
  + 828 X_0_1 + 555 X_0_2 + 906 X_0_3 + 1069 X_0_4 + 711 X_0_5 + 623 X_0_6 + 557 X_0_7 + 267 X_0_8
  + 905 X_0_9 + 828 X_1_0 + 478 X_1_2 + 426 X_1_3 + 242 X_1_4 + 432 X_1_5 + 567 X_1_6 + 347 X_1_7
  + 652 X_1_8 + 148 X_1_9 + 555 X_2_0 + 478 X_2_1 + 357 X_2_3 + 692 X_2_4 + 158 X_2_5 + 735 X_2_6
  + 488 X_2_7 + 551 X_2_8 + 617 X_2_9 + 906 X_3_0 + 426 X_3_1 + 357 X_3_2 + 524 X_3_4 + 200 X_3_5
  + 920 X_3_6 + 659 X_3_7 + 850 X_3_8 + 565 X_3_9 + 1069 X_4_0 + 242 X_4_1 + 692 X_4_2 + 524 X_4_3
  + 608 X_4_5 + 734 X_4_6 + 560 X_4_7 + 881 X_4_8 + 203 X_4_9 + 711 X_5_0 + 432 X_5_1 + 158 X_5_2
  + 200 X_5_3 + 608 X_5_4 + 813 X_5_6 + 552 X_5_7 + 683 X_5_8 + 580 X_5_9 + 623 X_6_0 + 567 X_6_1
  + 735 X_6_2 + 920 X_6_3 + 734 X_6_4 + 813 X_6_5 + 262 X_6_7 + 356 X_6_8 + 530 X_6_9 + 557 X_7_0
  + 347 X_7_1 + 488 X_7_2 + 659 X_7_3 + 560 X_7_4 + 552 X_7_5 + 262 X_7_6 + 328 X_7_8 + 369 X_7_9
  + 267 X_8_0 + 652 X_8_1 + 551 X_8_2 + 850 X_8_3 + 881 X_8_4 + 683 X_8_5 + 356 X_8_6 + 328 X_8_7
  + 696 X_8_9 + 905 X_9_0 + 148 X_9_1 + 617 X_9_2 + 565 X_9_3 + 203 X_9_4 + 580 X_9_5 + 530 X_9_6
  + 369 X_9_7 + 696 X_9_8
  <= 6
 obj7:
  + 642 X_0_1 + 739 X_0_2 + 469 X_0_3 + 342 X_0_4 + 345 X_0_5 + 232 X_0_6 + 719 X_0_7 + 195 X_0_8
  + 1161 X_0_9 + 642 X_1_0 + 430 X_1_2 + 522 X_1_3 + 538 X_1_4 + 425 X_1_5 + 596 X_1_6 + 629 X_1_7
  + 657 X_1_8 + 948 X_1_9 + 739 X_2_0 + 430 X_2_1 + 326 X_2_3 + 439 X_2_4 + 394 X_2_5 + 558 X_2_6
  + 245 X_2_7 + 632 X_2_8 + 523 X_2_9 + 469 X_3_0 + 522 X_3_1 + 326 X_3_2 + 129 X_3_4 + 165 X_3_5
  + 252 X_3_6 + 249 X_3_7 + 322 X_3_8 + 691 X_3_9 + 342 X_4_0 + 538 X_4_1 + 439 X_4_2 + 129 X_4_3
  + 115 X_4_5 + 123 X_4_6 + 377 X_4_7 + 195 X_4_8 + 818 X_4_9 + 345 X_5_0 + 425 X_5_1 + 394 X_5_2
  + 165 X_5_3 + 115 X_5_4 + 187 X_5_6 + 401 X_5_7 + 259 X_5_8 + 836 X_5_9 + 232 X_6_0 + 596 X_6_1
  + 558 X_6_2 + 252 X_6_3 + 123 X_6_4 + 187 X_6_5 + 496 X_6_7 + 74 X_6_8 + 937 X_6_9 + 719 X_7_0
  + 629 X_7_1 + 245 X_7_2 + 249 X_7_3 + 377 X_7_4 + 401 X_7_5 + 496 X_7_6 + 560 X_7_8 + 441 X_7_9
  + 195 X_8_0 + 657 X_8_1 + 632 X_8_2 + 322 X_8_3 + 195 X_8_4 + 259 X_8_5 + 74 X_8_6 + 560 X_8_7
  + 998 X_8_9 + 1161 X_9_0 + 948 X_9_1 + 523 X_9_2 + 691 X_9_3 + 818 X_9_4 + 836 X_9_5 + 937 X_9_6
  + 441 X_9_7 + 998 X_9_8
  <= 7
Bounds
 1 <= U1 <= 9
 1 <= U2 <= 9
 1 <= U3 <= 9
 1 <= U4 <= 9
 1 <= U5 <= 9
 1 <= U6 <= 9
 1 <= U7 <= 9
 1 <= U8 <= 9
 1 <= U9 <= 9
Binary
 X_0_1
 X_0_2
 X_0_3
 X_0_4
 X_0_5
 X_0_6
 X_0_7
 X_0_8
 X_0_9
 X_1_0
 X_1_2
 X_1_3
 X_1_4
 X_1_5
 X_1_6
 X_1_7
 X_1_8
 X_1_9
 X_2_0
 X_2_1
 X_2_3
 X_2_4
 X_2_5
 X_2_6
 X_2_7
 X_2_8
 X_2_9
 X_3_0
 X_3_1
 X_3_2
 X_3_4
 X_3_5
 X_3_6
 X_3_7
 X_3_8
 X_3_9
 X_4_0
 X_4_1
 X_4_2
 X_4_3
 X_4_5
 X_4_6
 X_4_7
 X_4_8
 X_4_9
 X_5_0
 X_5_1
 X_5_2
 X_5_3
 X_5_4
 X_5_6
 X_5_7
 X_5_8
 X_5_9
 X_6_0
 X_6_1
 X_6_2
 X_6_3
 X_6_4
 X_6_5
 X_6_7
 X_6_8
 X_6_9
 X_7_0
 X_7_1
 X_7_2
 X_7_3
 X_7_4
 X_7_5
 X_7_6
 X_7_8
 X_7_9
 X_8_0
 X_8_1
 X_8_2
 X_8_3
 X_8_4
 X_8_5
 X_8_6
 X_8_7
 X_8_9
 X_9_0
 X_9_1
 X_9_2
 X_9_3
 X_9_4
 X_9_5
 X_9_6
 X_9_7
 X_9_8
End
